90 4005
1 2 132
1 3 143
1 4 255
1 5 151
1 6 253
1 7 136
1 8 156
1 9 253
1 10 129
1 11 167
1 12 259
1 13 88
1 14 259
1 15 131
1 16 257
1 17 47
1 18 201
1 19 144
1 20 109
1 21 50
1 22 36
1 23 137
1 24 160
1 25 138
1 26 106
1 27 257
1 28 219
1 29 92
1 30 235
1 31 240
1 32 166
1 33 116
1 34 130
1 35 261
1 36 57
1 37 22
1 38 267
1 39 2
1 40 171
1 41 90
1 42 212
1 43 211
1 44 145
1 45 14
1 46 106
1 47 51
1 48 190
1 49 14
1 50 76
1 51 88
1 52 174
1 53 181
1 54 229
1 55 269
1 56 46
1 57 53
1 58 62
1 59 67
1 60 2
1 61 44
1 62 191
1 63 251
1 64 265
1 65 187
1 66 79
1 67 160
1 68 5
1 69 211
1 70 110
1 71 147
1 72 139
1 73 165
1 74 183
1 75 17
1 76 214
1 77 29
1 78 152
1 79 71
1 80 146
1 81 27
1 82 55
1 83 202
1 84 217
1 85 227
1 86 151
1 87 80
1 88 52
1 89 248
1 90 157
2 3 22
2 4 64
2 5 220
2 6 128
2 7 20
2 8 101
2 9 99
2 10 15
2 11 193
2 12 258
2 13 230
2 14 193
2 15 131
2 16 54
2 17 108
2 18 14
2 19 8
2 20 230
2 21 228
2 22 215
2 23 226
2 24 89
2 25 25
2 26 261
2 27 50
2 28 141
2 29 59
2 30 139
2 31 185
2 32 248
2 33 182
2 34 42
2 35 82
2 36 249
2 37 156
2 38 116
2 39 222
2 40 240
2 41 264
2 42 22
2 43 122
2 44 263
2 45 214
2 46 107
2 47 198
2 48 49
2 49 41
2 50 131
2 51 170
2 52 57
2 53 116
2 54 103
2 55 106
2 56 32
2 57 67
2 58 50
2 59 82
2 60 85
2 61 266
2 62 34
2 63 8
2 64 217
2 65 227
2 66 154
2 67 93
2 68 142
2 69 267
2 70 232
2 71 22
2 72 0
2 73 206
2 74 160
2 75 208
2 76 85
2 77 7
2 78 82
2 79 177
2 80 145
2 81 259
2 82 87
2 83 65
2 84 98
2 85 51
2 86 70
2 87 185
2 88 171
2 89 69
2 90 152
3 4 16
3 5 216
3 6 165
3 7 245
3 8 257
3 9 171
3 10 14
3 11 187
3 12 124
3 13 66
3 14 116
3 15 90
3 16 239
3 17 206
3 18 5
3 19 44
3 20 198
3 21 243
3 22 40
3 23 2
3 24 210
3 25 91
3 26 269
3 27 114
3 28 59
3 29 156
3 30 197
3 31 57
3 32 44
3 33 220
3 34 233
3 35 16
3 36 249
3 37 151
3 38 43
3 39 222
3 40 164
3 41 204
3 42 58
3 43 83
3 44 54
3 45 257
3 46 201
3 47 86
3 48 66
3 49 74
3 50 31
3 51 255
3 52 80
3 53 244
3 54 110
3 55 193
3 56 10
3 57 186
3 58 212
3 59 203
3 60 254
3 61 86
3 62 82
3 63 86
3 64 62
3 65 25
3 66 90
3 67 257
3 68 265
3 69 18
3 70 10
3 71 137
3 72 267
3 73 155
3 74 25
3 75 243
3 76 41
3 77 230
3 78 78
3 79 139
3 80 110
3 81 80
3 82 54
3 83 172
3 84 126
3 85 57
3 86 20
3 87 268
3 88 216
3 89 228
3 90 75
4 5 209
4 6 11
4 7 168
4 8 102
4 9 199
4 10 129
4 11 56
4 12 195
4 13 102
4 14 131
4 15 176
4 16 197
4 17 169
4 18 154
4 19 29
4 20 235
4 21 132
4 22 178
4 23 168
4 24 50
4 25 179
4 26 244
4 27 132
4 28 169
4 29 154
4 30 143
4 31 36
4 32 85
4 33 35
4 34 148
4 35 181
4 36 182
4 37 116
4 38 232
4 39 57
4 40 0
4 41 22
4 42 225
4 43 24
4 44 229
4 45 78
4 46 269
4 47 259
4 48 199
4 49 36
4 50 177
4 51 10
4 52 176
4 53 258
4 54 3
4 55 250
4 56 5
4 57 13
4 58 178
4 59 70
4 60 25
4 61 127
4 62 184
4 63 164
4 64 202
4 65 240
4 66 69
4 67 197
4 68 45
4 69 13
4 70 58
4 71 102
4 72 173
4 73 17
4 74 58
4 75 98
4 76 12
4 77 238
4 78 46
4 79 99
4 80 139
4 81 198
4 82 200
4 83 212
4 84 213
4 85 214
4 86 85
4 87 223
4 88 228
4 89 181
4 90 255
5 6 227
5 7 202
5 8 5
5 9 48
5 10 130
5 11 68
5 12 260
5 13 141
5 14 104
5 15 116
5 16 68
5 17 48
5 18 54
5 19 137
5 20 175
5 21 173
5 22 72
5 23 0
5 24 244
5 25 180
5 26 147
5 27 72
5 28 191
5 29 28
5 30 29
5 31 95
5 32 46
5 33 27
5 34 208
5 35 244
5 36 203
5 37 265
5 38 16
5 39 188
5 40 200
5 41 228
5 42 176
5 43 117
5 44 28
5 45 106
5 46 25
5 47 175
5 48 225
5 49 252
5 50 158
5 51 191
5 52 2
5 53 239
5 54 31
5 55 73
5 56 247
5 57 99
5 58 99
5 59 251
5 60 149
5 61 210
5 62 154
5 63 252
5 64 19
5 65 32
5 66 33
5 67 45
5 68 115
5 69 48
5 70 124
5 71 78
5 72 159
5 73 12
5 74 226
5 75 158
5 76 178
5 77 252
5 78 4
5 79 99
5 80 27
5 81 104
5 82 145
5 83 24
5 84 13
5 85 149
5 86 208
5 87 36
5 88 5
5 89 11
5 90 47
6 7 184
6 8 227
6 9 185
6 10 218
6 11 115
6 12 165
6 13 192
6 14 157
6 15 127
6 16 147
6 17 131
6 18 43
6 19 264
6 20 222
6 21 120
6 22 254
6 23 242
6 24 180
6 25 26
6 26 11
6 27 125
6 28 244
6 29 238
6 30 193
6 31 96
6 32 147
6 33 246
6 34 99
6 35 31
6 36 66
6 37 59
6 38 96
6 39 111
6 40 0
6 41 150
6 42 134
6 43 9
6 44 43
6 45 14
6 46 151
6 47 111
6 48 208
6 49 176
6 50 252
6 51 201
6 52 207
6 53 248
6 54 83
6 55 268
6 56 114
6 57 227
6 58 63
6 59 102
6 60 209
6 61 181
6 62 144
6 63 118
6 64 11
6 65 111
6 66 161
6 67 173
6 68 216
6 69 73
6 70 166
6 71 236
6 72 93
6 73 157
6 74 204
6 75 30
6 76 258
6 77 205
6 78 64
6 79 71
6 80 137
6 81 60
6 82 111
6 83 253
6 84 124
6 85 110
6 86 218
6 87 247
6 88 87
6 89 42
6 90 206
7 8 65
7 9 178
7 10 263
7 11 159
7 12 71
7 13 52
7 14 200
7 15 56
7 16 60
7 17 54
7 18 57
7 19 28
7 20 238
7 21 229
7 22 46
7 23 251
7 24 249
7 25 240
7 26 233
7 27 233
7 28 245
7 29 47
7 30 0
7 31 166
7 32 82
7 33 12
7 34 185
7 35 241
7 36 67
7 37 8
7 38 223
7 39 152
7 40 133
7 41 105
7 42 268
7 43 42
7 44 29
7 45 188
7 46 101
7 47 144
7 48 27
7 49 23
7 50 230
7 51 233
7 52 143
7 53 175
7 54 135
7 55 182
7 56 43
7 57 182
7 58 84
7 59 269
7 60 267
7 61 224
7 62 28
7 63 80
7 64 254
7 65 175
7 66 144
7 67 29
7 68 19
7 69 112
7 70 31
7 71 248
7 72 264
7 73 229
7 74 204
7 75 229
7 76 88
7 77 115
7 78 200
7 79 236
7 80 138
7 81 208
7 82 250
7 83 65
7 84 124
7 85 129
7 86 216
7 87 135
7 88 210
7 89 255
7 90 149
8 9 133
8 10 76
8 11 90
8 12 109
8 13 171
8 14 26
8 15 221
8 16 118
8 17 226
8 18 143
8 19 33
8 20 48
8 21 147
8 22 134
8 23 107
8 24 157
8 25 191
8 26 208
8 27 57
8 28 171
8 29 73
8 30 91
8 31 84
8 32 117
8 33 262
8 34 239
8 35 218
8 36 215
8 37 235
8 38 148
8 39 171
8 40 216
8 41 229
8 42 215
8 43 131
8 44 18
8 45 71
8 46 68
8 47 183
8 48 223
8 49 97
8 50 254
8 51 258
8 52 110
8 53 204
8 54 183
8 55 76
8 56 249
8 57 160
8 58 41
8 59 42
8 60 1
8 61 234
8 62 210
8 63 206
8 64 135
8 65 191
8 66 42
8 67 38
8 68 254
8 69 192
8 70 209
8 71 10
8 72 110
8 73 266
8 74 218
8 75 125
8 76 53
8 77 178
8 78 193
8 79 146
8 80 20
8 81 264
8 82 188
8 83 142
8 84 0
8 85 181
8 86 8
8 87 75
8 88 183
8 89 152
8 90 183
9 10 11
9 11 6
9 12 229
9 13 159
9 14 243
9 15 183
9 16 121
9 17 205
9 18 150
9 19 117
9 20 140
9 21 202
9 22 88
9 23 71
9 24 18
9 25 99
9 26 33
9 27 94
9 28 257
9 29 96
9 30 78
9 31 99
9 32 266
9 33 3
9 34 142
9 35 133
9 36 81
9 37 73
9 38 261
9 39 231
9 40 127
9 41 262
9 42 140
9 43 1
9 44 266
9 45 33
9 46 65
9 47 188
9 48 30
9 49 89
9 50 256
9 51 206
9 52 28
9 53 269
9 54 91
9 55 13
9 56 243
9 57 254
9 58 191
9 59 4
9 60 63
9 61 176
9 62 49
9 63 184
9 64 207
9 65 93
9 66 61
9 67 136
9 68 232
9 69 155
9 70 133
9 71 112
9 72 179
9 73 82
9 74 167
9 75 112
9 76 49
9 77 89
9 78 127
9 79 61
9 80 189
9 81 267
9 82 0
9 83 43
9 84 265
9 85 242
9 86 246
9 87 185
9 88 26
9 89 115
9 90 86
10 11 244
10 12 246
10 13 239
10 14 70
10 15 152
10 16 110
10 17 93
10 18 204
10 19 101
10 20 51
10 21 103
10 22 2
10 23 205
10 24 167
10 25 111
10 26 128
10 27 8
10 28 257
10 29 4
10 30 236
10 31 75
10 32 212
10 33 23
10 34 252
10 35 251
10 36 216
10 37 24
10 38 212
10 39 193
10 40 222
10 41 95
10 42 226
10 43 29
10 44 116
10 45 156
10 46 239
10 47 122
10 48 183
10 49 37
10 50 255
10 51 267
10 52 5
10 53 83
10 54 101
10 55 168
10 56 227
10 57 111
10 58 217
10 59 208
10 60 54
10 61 240
10 62 145
10 63 177
10 64 71
10 65 155
10 66 37
10 67 227
10 68 125
10 69 186
10 70 240
10 71 55
10 72 145
10 73 44
10 74 180
10 75 214
10 76 46
10 77 235
10 78 3
10 79 48
10 80 35
10 81 57
10 82 250
10 83 44
10 84 81
10 85 98
10 86 181
10 87 262
10 88 82
10 89 216
10 90 26
11 12 149
11 13 13
11 14 152
11 15 156
11 16 200
11 17 80
11 18 131
11 19 24
11 20 112
11 21 191
11 22 47
11 23 99
11 24 142
11 25 97
11 26 59
11 27 168
11 28 215
11 29 36
11 30 256
11 31 17
11 32 156
11 33 169
11 34 108
11 35 155
11 36 102
11 37 31
11 38 75
11 39 244
11 40 96
11 41 187
11 42 136
11 43 143
11 44 63
11 45 101
11 46 174
11 47 197
11 48 154
11 49 190
11 50 114
11 51 28
11 52 235
11 53 11
11 54 121
11 55 222
11 56 116
11 57 231
11 58 31
11 59 28
11 60 136
11 61 121
11 62 258
11 63 73
11 64 140
11 65 38
11 66 71
11 67 168
11 68 129
11 69 60
11 70 140
11 71 177
11 72 264
11 73 98
11 74 87
11 75 19
11 76 8
11 77 8
11 78 95
11 79 191
11 80 171
11 81 170
11 82 33
11 83 33
11 84 57
11 85 6
11 86 138
11 87 260
11 88 145
11 89 83
11 90 224
12 13 265
12 14 109
12 15 241
12 16 68
12 17 138
12 18 117
12 19 207
12 20 238
12 21 127
12 22 18
12 23 51
12 24 35
12 25 205
12 26 25
12 27 190
12 28 267
12 29 81
12 30 174
12 31 215
12 32 161
12 33 175
12 34 42
12 35 22
12 36 175
12 37 9
12 38 230
12 39 194
12 40 136
12 41 222
12 42 78
12 43 76
12 44 225
12 45 87
12 46 29
12 47 267
12 48 236
12 49 236
12 50 43
12 51 147
12 52 95
12 53 168
12 54 253
12 55 23
12 56 185
12 57 237
12 58 47
12 59 258
12 60 143
12 61 111
12 62 74
12 63 166
12 64 124
12 65 223
12 66 26
12 67 17
12 68 202
12 69 204
12 70 23
12 71 190
12 72 147
12 73 234
12 74 131
12 75 248
12 76 234
12 77 238
12 78 190
12 79 39
12 80 50
12 81 144
12 82 89
12 83 16
12 84 139
12 85 202
12 86 175
12 87 62
12 88 122
12 89 53
12 90 171
13 14 19
13 15 51
13 16 248
13 17 33
13 18 226
13 19 62
13 20 43
13 21 266
13 22 38
13 23 173
13 24 124
13 25 73
13 26 83
13 27 209
13 28 224
13 29 23
13 30 113
13 31 197
13 32 80
13 33 126
13 34 23
13 35 10
13 36 22
13 37 82
13 38 55
13 39 56
13 40 133
13 41 112
13 42 8
13 43 146
13 44 38
13 45 41
13 46 222
13 47 122
13 48 266
13 49 217
13 50 46
13 51 176
13 52 240
13 53 205
13 54 109
13 55 39
13 56 129
13 57 240
13 58 73
13 59 191
13 60 245
13 61 78
13 62 142
13 63 52
13 64 210
13 65 31
13 66 82
13 67 53
13 68 150
13 69 168
13 70 65
13 71 102
13 72 6
13 73 194
13 74 229
13 75 190
13 76 131
13 77 204
13 78 61
13 79 179
13 80 132
13 81 92
13 82 1
13 83 33
13 84 5
13 85 236
13 86 36
13 87 110
13 88 99
13 89 240
13 90 133
14 15 52
14 16 61
14 17 96
14 18 122
14 19 45
14 20 195
14 21 264
14 22 235
14 23 61
14 24 253
14 25 265
14 26 145
14 27 78
14 28 227
14 29 193
14 30 114
14 31 68
14 32 6
14 33 242
14 34 63
14 35 95
14 36 221
14 37 15
14 38 200
14 39 146
14 40 220
14 41 49
14 42 167
14 43 118
14 44 49
14 45 190
14 46 168
14 47 186
14 48 213
14 49 237
14 50 207
14 51 187
14 52 9
14 53 98
14 54 209
14 55 181
14 56 61
14 57 99
14 58 249
14 59 73
14 60 193
14 61 46
14 62 112
14 63 33
14 64 121
14 65 55
14 66 197
14 67 230
14 68 162
14 69 123
14 70 224
14 71 217
14 72 60
14 73 137
14 74 99
14 75 37
14 76 257
14 77 5
14 78 12
14 79 7
14 80 63
14 81 243
14 82 190
14 83 189
14 84 255
14 85 30
14 86 109
14 87 255
14 88 255
14 89 214
14 90 168
15 16 114
15 17 33
15 18 213
15 19 237
15 20 259
15 21 217
15 22 184
15 23 39
15 24 0
15 25 139
15 26 159
15 27 143
15 28 250
15 29 12
15 30 253
15 31 266
15 32 182
15 33 89
15 34 263
15 35 7
15 36 244
15 37 64
15 38 231
15 39 258
15 40 66
15 41 115
15 42 266
15 43 173
15 44 80
15 45 157
15 46 197
15 47 97
15 48 23
15 49 5
15 50 148
15 51 180
15 52 269
15 53 266
15 54 217
15 55 160
15 56 142
15 57 253
15 58 181
15 59 86
15 60 32
15 61 181
15 62 15
15 63 6
15 64 68
15 65 52
15 66 145
15 67 156
15 68 18
15 69 73
15 70 174
15 71 190
15 72 104
15 73 72
15 74 258
15 75 253
15 76 127
15 77 236
15 78 61
15 79 132
15 80 221
15 81 189
15 82 12
15 83 46
15 84 47
15 85 71
15 86 184
15 87 87
15 88 234
15 89 18
15 90 99
16 17 178
16 18 111
16 19 254
16 20 167
16 21 78
16 22 66
16 23 138
16 24 36
16 25 178
16 26 16
16 27 82
16 28 228
16 29 125
16 30 223
16 31 143
16 32 45
16 33 239
16 34 35
16 35 256
16 36 222
16 37 262
16 38 232
16 39 178
16 40 255
16 41 82
16 42 44
16 43 227
16 44 174
16 45 64
16 46 73
16 47 206
16 48 183
16 49 168
16 50 183
16 51 91
16 52 1
16 53 153
16 54 229
16 55 180
16 56 92
16 57 171
16 58 16
16 59 239
16 60 200
16 61 17
16 62 70
16 63 205
16 64 167
16 65 137
16 66 154
16 67 72
16 68 41
16 69 87
16 70 177
16 71 64
16 72 159
16 73 79
16 74 54
16 75 120
16 76 126
16 77 153
16 78 5
16 79 47
16 80 117
16 81 193
16 82 244
16 83 192
16 84 86
16 85 145
16 86 132
16 87 41
16 88 113
16 89 150
16 90 153
17 18 225
17 19 266
17 20 99
17 21 135
17 22 28
17 23 218
17 24 94
17 25 174
17 26 88
17 27 151
17 28 25
17 29 146
17 30 178
17 31 206
17 32 248
17 33 102
17 34 236
17 35 191
17 36 53
17 37 255
17 38 45
17 39 153
17 40 181
17 41 266
17 42 65
17 43 229
17 44 101
17 45 232
17 46 83
17 47 32
17 48 120
17 49 165
17 50 184
17 51 53
17 52 60
17 53 120
17 54 56
17 55 42
17 56 202
17 57 131
17 58 35
17 59 94
17 60 124
17 61 251
17 62 55
17 63 161
17 64 173
17 65 132
17 66 218
17 67 250
17 68 76
17 69 149
17 70 19
17 71 77
17 72 0
17 73 204
17 74 126
17 75 245
17 76 228
17 77 3
17 78 111
17 79 23
17 80 104
17 81 120
17 82 217
17 83 131
17 84 229
17 85 167
17 86 221
17 87 201
17 88 16
17 89 231
17 90 122
18 19 184
18 20 132
18 21 53
18 22 101
18 23 63
18 24 81
18 25 116
18 26 108
18 27 25
18 28 45
18 29 21
18 30 151
18 31 240
18 32 125
18 33 73
18 34 30
18 35 24
18 36 136
18 37 200
18 38 191
18 39 180
18 40 154
18 41 39
18 42 238
18 43 230
18 44 81
18 45 201
18 46 53
18 47 139
18 48 0
18 49 185
18 50 267
18 51 11
18 52 251
18 53 68
18 54 54
18 55 211
18 56 231
18 57 241
18 58 32
18 59 156
18 60 195
18 61 85
18 62 25
18 63 75
18 64 4
18 65 43
18 66 91
18 67 68
18 68 45
18 69 248
18 70 159
18 71 240
18 72 28
18 73 147
18 74 42
18 75 232
18 76 174
18 77 85
18 78 230
18 79 252
18 80 91
18 81 142
18 82 140
18 83 212
18 84 16
18 85 139
18 86 240
18 87 60
18 88 20
18 89 72
18 90 234
19 20 51
19 21 24
19 22 210
19 23 233
19 24 4
19 25 10
19 26 72
19 27 183
19 28 96
19 29 97
19 30 190
19 31 192
19 32 101
19 33 218
19 34 99
19 35 180
19 36 182
19 37 211
19 38 221
19 39 215
19 40 99
19 41 236
19 42 136
19 43 77
19 44 220
19 45 76
19 46 201
19 47 54
19 48 153
19 49 117
19 50 158
19 51 5
19 52 168
19 53 116
19 54 186
19 55 165
19 56 121
19 57 99
19 58 148
19 59 144
19 60 28
19 61 174
19 62 37
19 63 164
19 64 232
19 65 196
19 66 202
19 67 150
19 68 48
19 69 179
19 70 67
19 71 84
19 72 243
19 73 173
19 74 195
19 75 88
19 76 128
19 77 253
19 78 121
19 79 73
19 80 190
19 81 10
19 82 258
19 83 129
19 84 115
19 85 237
19 86 184
19 87 91
19 88 44
19 89 244
19 90 84
20 21 232
20 22 237
20 23 224
20 24 116
20 25 159
20 26 68
20 27 212
20 28 110
20 29 257
20 30 127
20 31 108
20 32 186
20 33 6
20 34 126
20 35 247
20 36 219
20 37 141
20 38 174
20 39 21
20 40 81
20 41 110
20 42 108
20 43 100
20 44 98
20 45 60
20 46 254
20 47 198
20 48 199
20 49 73
20 50 168
20 51 28
20 52 230
20 53 65
20 54 12
20 55 206
20 56 122
20 57 158
20 58 37
20 59 259
20 60 96
20 61 197
20 62 94
20 63 19
20 64 177
20 65 225
20 66 127
20 67 160
20 68 202
20 69 194
20 70 232
20 71 91
20 72 180
20 73 171
20 74 159
20 75 246
20 76 247
20 77 113
20 78 150
20 79 185
20 80 73
20 81 142
20 82 192
20 83 85
20 84 35
20 85 160
20 86 186
20 87 49
20 88 49
20 89 69
20 90 194
21 22 133
21 23 54
21 24 57
21 25 207
21 26 114
21 27 3
21 28 189
21 29 63
21 30 57
21 31 263
21 32 91
21 33 178
21 34 108
21 35 175
21 36 177
21 37 216
21 38 128
21 39 129
21 40 137
21 41 253
21 42 117
21 43 164
21 44 82
21 45 255
21 46 64
21 47 162
21 48 63
21 49 118
21 50 217
21 51 261
21 52 169
21 53 15
21 54 129
21 55 155
21 56 50
21 57 250
21 58 138
21 59 91
21 60 132
21 61 90
21 62 22
21 63 263
21 64 135
21 65 83
21 66 146
21 67 23
21 68 92
21 69 163
21 70 160
21 71 120
21 72 73
21 73 47
21 74 137
21 75 98
21 76 42
21 77 125
21 78 13
21 79 38
21 80 93
21 81 163
21 82 123
21 83 178
21 84 44
21 85 45
21 86 215
21 87 72
21 88 95
21 89 154
21 90 107
22 23 233
22 24 192
22 25 36
22 26 156
22 27 53
22 28 237
22 29 14
22 30 79
22 31 204
22 32 30
22 33 65
22 34 235
22 35 232
22 36 85
22 37 14
22 38 79
22 39 60
22 40 204
22 41 72
22 42 39
22 43 17
22 44 36
22 45 144
22 46 239
22 47 158
22 48 154
22 49 204
22 50 216
22 51 153
22 52 165
22 53 209
22 54 245
22 55 205
22 56 107
22 57 266
22 58 245
22 59 31
22 60 102
22 61 31
22 62 236
22 63 19
22 64 53
22 65 39
22 66 83
22 67 265
22 68 26
22 69 119
22 70 205
22 71 117
22 72 198
22 73 171
22 74 196
22 75 86
22 76 5
22 77 83
22 78 109
22 79 48
22 80 224
22 81 261
22 82 241
22 83 86
22 84 100
22 85 169
22 86 37
22 87 236
22 88 50
22 89 178
22 90 206
23 24 152
23 25 4
23 26 138
23 27 153
23 28 149
23 29 76
23 30 113
23 31 254
23 32 75
23 33 197
23 34 38
23 35 75
23 36 164
23 37 250
23 38 188
23 39 122
23 40 228
23 41 145
23 42 194
23 43 258
23 44 36
23 45 235
23 46 246
23 47 256
23 48 125
23 49 93
23 50 57
23 51 112
23 52 19
23 53 223
23 54 122
23 55 59
23 56 111
23 57 22
23 58 138
23 59 216
23 60 239
23 61 93
23 62 202
23 63 118
23 64 212
23 65 104
23 66 90
23 67 254
23 68 18
23 69 108
23 70 206
23 71 258
23 72 50
23 73 252
23 74 175
23 75 4
23 76 155
23 77 187
23 78 8
23 79 102
23 80 127
23 81 98
23 82 233
23 83 104
23 84 166
23 85 5
23 86 104
23 87 58
23 88 259
23 89 66
23 90 0
24 25 226
24 26 2
24 27 86
24 28 169
24 29 161
24 30 163
24 31 107
24 32 155
24 33 92
24 34 210
24 35 214
24 36 234
24 37 27
24 38 16
24 39 168
24 40 77
24 41 84
24 42 122
24 43 146
24 44 265
24 45 178
24 46 17
24 47 19
24 48 15
24 49 79
24 50 130
24 51 90
24 52 92
24 53 175
24 54 243
24 55 237
24 56 202
24 57 26
24 58 38
24 59 139
24 60 33
24 61 257
24 62 191
24 63 161
24 64 10
24 65 79
24 66 75
24 67 15
24 68 109
24 69 74
24 70 199
24 71 80
24 72 218
24 73 250
24 74 1
24 75 58
24 76 5
24 77 133
24 78 150
24 79 127
24 80 77
24 81 80
24 82 23
24 83 265
24 84 21
24 85 43
24 86 250
24 87 238
24 88 49
24 89 161
24 90 227
25 26 232
25 27 37
25 28 94
25 29 168
25 30 11
25 31 57
25 32 149
25 33 239
25 34 184
25 35 47
25 36 26
25 37 225
25 38 83
25 39 169
25 40 5
25 41 203
25 42 140
25 43 201
25 44 175
25 45 225
25 46 45
25 47 76
25 48 73
25 49 9
25 50 31
25 51 21
25 52 26
25 53 210
25 54 190
25 55 233
25 56 197
25 57 235
25 58 13
25 59 261
25 60 159
25 61 198
25 62 79
25 63 214
25 64 42
25 65 28
25 66 180
25 67 122
25 68 63
25 69 214
25 70 59
25 71 167
25 72 269
25 73 268
25 74 16
25 75 243
25 76 227
25 77 256
25 78 100
25 79 130
25 80 228
25 81 247
25 82 246
25 83 94
25 84 59
25 85 246
25 86 100
25 87 210
25 88 224
25 89 189
25 90 173
26 27 150
26 28 88
26 29 87
26 30 136
26 31 179
26 32 230
26 33 130
26 34 231
26 35 120
26 36 88
26 37 127
26 38 194
26 39 107
26 40 16
26 41 141
26 42 242
26 43 255
26 44 116
26 45 173
26 46 142
26 47 247
26 48 68
26 49 9
26 50 217
26 51 212
26 52 226
26 53 94
26 54 52
26 55 117
26 56 149
26 57 69
26 58 92
26 59 100
26 60 266
26 61 100
26 62 228
26 63 18
26 64 40
26 65 42
26 66 234
26 67 196
26 68 101
26 69 222
26 70 89
26 71 170
26 72 186
26 73 136
26 74 141
26 75 76
26 76 23
26 77 140
26 78 83
26 79 202
26 80 125
26 81 36
26 82 231
26 83 247
26 84 155
26 85 73
26 86 226
26 87 36
26 88 92
26 89 12
26 90 211
27 28 29
27 29 203
27 30 262
27 31 114
27 32 194
27 33 187
27 34 34
27 35 112
27 36 140
27 37 25
27 38 203
27 39 219
27 40 21
27 41 180
27 42 94
27 43 267
27 44 223
27 45 101
27 46 229
27 47 74
27 48 260
27 49 264
27 50 21
27 51 183
27 52 23
27 53 97
27 54 238
27 55 164
27 56 58
27 57 61
27 58 17
27 59 90
27 60 108
27 61 248
27 62 87
27 63 155
27 64 107
27 65 88
27 66 227
27 67 247
27 68 45
27 69 21
27 70 244
27 71 257
27 72 155
27 73 200
27 74 12
27 75 121
27 76 83
27 77 176
27 78 59
27 79 69
27 80 245
27 81 47
27 82 78
27 83 201
27 84 134
27 85 42
27 86 164
27 87 107
27 88 7
27 89 164
27 90 59
28 29 78
28 30 18
28 31 29
28 32 229
28 33 27
28 34 180
28 35 251
28 36 132
28 37 113
28 38 205
28 39 15
28 40 35
28 41 147
28 42 192
28 43 202
28 44 219
28 45 231
28 46 0
28 47 160
28 48 236
28 49 31
28 50 28
28 51 8
28 52 128
28 53 111
28 54 248
28 55 76
28 56 160
28 57 42
28 58 41
28 59 116
28 60 237
28 61 16
28 62 258
28 63 168
28 64 123
28 65 175
28 66 91
28 67 206
28 68 128
28 69 77
28 70 137
28 71 188
28 72 50
28 73 89
28 74 147
28 75 266
28 76 269
28 77 19
28 78 207
28 79 66
28 80 250
28 81 180
28 82 28
28 83 22
28 84 138
28 85 171
28 86 89
28 87 40
28 88 100
28 89 93
28 90 14
29 30 189
29 31 142
29 32 261
29 33 87
29 34 206
29 35 100
29 36 173
29 37 164
29 38 147
29 39 42
29 40 218
29 41 104
29 42 47
29 43 80
29 44 18
29 45 87
29 46 112
29 47 53
29 48 103
29 49 73
29 50 32
29 51 255
29 52 206
29 53 62
29 54 163
29 55 72
29 56 258
29 57 44
29 58 203
29 59 213
29 60 209
29 61 10
29 62 4
29 63 48
29 64 56
29 65 16
29 66 150
29 67 249
29 68 50
29 69 243
29 70 241
29 71 139
29 72 132
29 73 174
29 74 111
29 75 209
29 76 253
29 77 117
29 78 14
29 79 140
29 80 186
29 81 66
29 82 164
29 83 178
29 84 147
29 85 108
29 86 44
29 87 210
29 88 253
29 89 117
29 90 255
30 31 165
30 32 17
30 33 135
30 34 43
30 35 201
30 36 77
30 37 84
30 38 119
30 39 227
30 40 214
30 41 89
30 42 219
30 43 19
30 44 83
30 45 166
30 46 131
30 47 119
30 48 36
30 49 117
30 50 187
30 51 220
30 52 57
30 53 176
30 54 137
30 55 62
30 56 160
30 57 170
30 58 198
30 59 206
30 60 101
30 61 195
30 62 49
30 63 190
30 64 26
30 65 255
30 66 117
30 67 143
30 68 174
30 69 27
30 70 105
30 71 143
30 72 249
30 73 56
30 74 94
30 75 107
30 76 241
30 77 49
30 78 229
30 79 243
30 80 158
30 81 34
30 82 222
30 83 172
30 84 84
30 85 214
30 86 83
30 87 241
30 88 36
30 89 136
30 90 238
31 32 92
31 33 226
31 34 27
31 35 17
31 36 245
31 37 268
31 38 122
31 39 243
31 40 207
31 41 14
31 42 194
31 43 34
31 44 244
31 45 188
31 46 95
31 47 183
31 48 206
31 49 165
31 50 99
31 51 218
31 52 12
31 53 174
31 54 163
31 55 11
31 56 186
31 57 255
31 58 26
31 59 267
31 60 201
31 61 176
31 62 19
31 63 221
31 64 42
31 65 32
31 66 252
31 67 152
31 68 85
31 69 229
31 70 42
31 71 11
31 72 57
31 73 30
31 74 75
31 75 111
31 76 72
31 77 126
31 78 239
31 79 120
31 80 61
31 81 248
31 82 253
31 83 100
31 84 253
31 85 233
31 86 14
31 87 137
31 88 17
31 89 154
31 90 197
32 33 54
32 34 187
32 35 8
32 36 261
32 37 138
32 38 122
32 39 200
32 40 55
32 41 259
32 42 17
32 43 123
32 44 45
32 45 80
32 46 118
32 47 189
32 48 123
32 49 42
32 50 209
32 51 185
32 52 70
32 53 200
32 54 141
32 55 39
32 56 114
32 57 39
32 58 88
32 59 204
32 60 100
32 61 186
32 62 27
32 63 91
32 64 175
32 65 258
32 66 45
32 67 53
32 68 240
32 69 118
32 70 153
32 71 2
32 72 192
32 73 127
32 74 109
32 75 246
32 76 187
32 77 248
32 78 103
32 79 10
32 80 237
32 81 169
32 82 229
32 83 173
32 84 23
32 85 231
32 86 159
32 87 250
32 88 38
32 89 117
32 90 216
33 34 171
33 35 191
33 36 201
33 37 14
33 38 90
33 39 245
33 40 88
33 41 154
33 42 103
33 43 264
33 44 191
33 45 85
33 46 47
33 47 210
33 48 185
33 49 233
33 50 180
33 51 82
33 52 243
33 53 69
33 54 57
33 55 214
33 56 53
33 57 8
33 58 169
33 59 269
33 60 202
33 61 199
33 62 254
33 63 40
33 64 129
33 65 198
33 66 138
33 67 8
33 68 181
33 69 177
33 70 64
33 71 243
33 72 154
33 73 162
33 74 161
33 75 143
33 76 169
33 77 36
33 78 59
33 79 124
33 80 107
33 81 58
33 82 214
33 83 248
33 84 173
33 85 154
33 86 217
33 87 104
33 88 180
33 89 148
33 90 221
34 35 93
34 36 94
34 37 139
34 38 125
34 39 95
34 40 197
34 41 35
34 42 27
34 43 45
34 44 180
34 45 224
34 46 217
34 47 244
34 48 139
34 49 257
34 50 149
34 51 5
34 52 69
34 53 181
34 54 74
34 55 126
34 56 236
34 57 54
34 58 63
34 59 81
34 60 138
34 61 227
34 62 9
34 63 248
34 64 230
34 65 220
34 66 268
34 67 120
34 68 25
34 69 111
34 70 144
34 71 56
34 72 242
34 73 113
34 74 55
34 75 152
34 76 245
34 77 19
34 78 162
34 79 263
34 80 242
34 81 154
34 82 107
34 83 261
34 84 126
34 85 44
34 86 73
34 87 126
34 88 94
34 89 25
34 90 21
35 36 31
35 37 43
35 38 86
35 39 235
35 40 232
35 41 140
35 42 202
35 43 41
35 44 269
35 45 196
35 46 19
35 47 138
35 48 23
35 49 229
35 50 224
35 51 23
35 52 63
35 53 25
35 54 72
35 55 178
35 56 141
35 57 74
35 58 6
35 59 202
35 60 171
35 61 174
35 62 108
35 63 52
35 64 59
35 65 33
35 66 24
35 67 202
35 68 116
35 69 181
35 70 216
35 71 58
35 72 204
35 73 72
35 74 177
35 75 256
35 76 158
35 77 225
35 78 266
35 79 256
35 80 224
35 81 156
35 82 267
35 83 228
35 84 108
35 85 58
35 86 186
35 87 110
35 88 249
35 89 88
35 90 53
36 37 230
36 38 178
36 39 19
36 40 260
36 41 86
36 42 28
36 43 92
36 44 133
36 45 121
36 46 0
36 47 67
36 48 24
36 49 130
36 50 165
36 51 149
36 52 198
36 53 220
36 54 178
36 55 154
36 56 140
36 57 238
36 58 259
36 59 158
36 60 155
36 61 122
36 62 89
36 63 147
36 64 80
36 65 124
36 66 75
36 67 34
36 68 166
36 69 80
36 70 23
36 71 96
36 72 50
36 73 61
36 74 31
36 75 226
36 76 99
36 77 71
36 78 264
36 79 193
36 80 114
36 81 6
36 82 78
36 83 178
36 84 167
36 85 221
36 86 35
36 87 197
36 88 196
36 89 165
36 90 133
37 38 205
37 39 27
37 40 89
37 41 38
37 42 108
37 43 214
37 44 81
37 45 131
37 46 92
37 47 14
37 48 125
37 49 240
37 50 77
37 51 155
37 52 88
37 53 252
37 54 267
37 55 11
37 56 182
37 57 16
37 58 215
37 59 242
37 60 140
37 61 61
37 62 186
37 63 205
37 64 193
37 65 73
37 66 93
37 67 232
37 68 186
37 69 127
37 70 82
37 71 145
37 72 161
37 73 192
37 74 35
37 75 116
37 76 181
37 77 248
37 78 10
37 79 194
37 80 255
37 81 136
37 82 258
37 83 100
37 84 256
37 85 133
37 86 229
37 87 182
37 88 58
37 89 40
37 90 181
38 39 48
38 40 115
38 41 23
38 42 176
38 43 146
38 44 49
38 45 159
38 46 64
38 47 170
38 48 56
38 49 113
38 50 3
38 51 191
38 52 164
38 53 73
38 54 14
38 55 173
38 56 9
38 57 164
38 58 80
38 59 265
38 60 245
38 61 250
38 62 236
38 63 70
38 64 206
38 65 123
38 66 202
38 67 136
38 68 161
38 69 173
38 70 38
38 71 16
38 72 234
38 73 260
38 74 83
38 75 143
38 76 171
38 77 89
38 78 20
38 79 256
38 80 185
38 81 198
38 82 193
38 83 236
38 84 167
38 85 184
38 86 104
38 87 28
38 88 246
38 89 11
38 90 231
39 40 154
39 41 209
39 42 29
39 43 48
39 44 52
39 45 24
39 46 107
39 47 253
39 48 183
39 49 246
39 50 232
39 51 249
39 52 70
39 53 94
39 54 166
39 55 220
39 56 5
39 57 86
39 58 159
39 59 261
39 60 38
39 61 18
39 62 90
39 63 65
39 64 129
39 65 81
39 66 20
39 67 85
39 68 256
39 69 187
39 70 228
39 71 150
39 72 225
39 73 147
39 74 170
39 75 229
39 76 47
39 77 65
39 78 32
39 79 224
39 80 49
39 81 250
39 82 120
39 83 139
39 84 114
39 85 76
39 86 115
39 87 40
39 88 148
39 89 38
39 90 265
40 41 157
40 42 188
40 43 207
40 44 123
40 45 174
40 46 195
40 47 169
40 48 33
40 49 90
40 50 79
40 51 95
40 52 15
40 53 99
40 54 264
40 55 134
40 56 189
40 57 39
40 58 84
40 59 82
40 60 149
40 61 170
40 62 73
40 63 14
40 64 70
40 65 197
40 66 177
40 67 234
40 68 264
40 69 162
40 70 75
40 71 54
40 72 99
40 73 57
40 74 225
40 75 140
40 76 157
40 77 243
40 78 184
40 79 100
40 80 229
40 81 37
40 82 100
40 83 134
40 84 239
40 85 20
40 86 135
40 87 168
40 88 18
40 89 80
40 90 206
41 42 240
41 43 250
41 44 50
41 45 110
41 46 244
41 47 44
41 48 20
41 49 227
41 50 35
41 51 231
41 52 40
41 53 164
41 54 221
41 55 48
41 56 194
41 57 191
41 58 241
41 59 145
41 60 120
41 61 118
41 62 145
41 63 261
41 64 96
41 65 171
41 66 140
41 67 225
41 68 12
41 69 167
41 70 12
41 71 32
41 72 241
41 73 43
41 74 197
41 75 259
41 76 151
41 77 147
41 78 216
41 79 69
41 80 208
41 81 113
41 82 238
41 83 184
41 84 132
41 85 53
41 86 251
41 87 1
41 88 111
41 89 134
41 90 83
42 43 199
42 44 64
42 45 174
42 46 222
42 47 48
42 48 172
42 49 213
42 50 98
42 51 222
42 52 37
42 53 213
42 54 153
42 55 12
42 56 242
42 57 251
42 58 25
42 59 269
42 60 228
42 61 59
42 62 212
42 63 24
42 64 206
42 65 88
42 66 207
42 67 87
42 68 32
42 69 227
42 70 81
42 71 6
42 72 21
42 73 176
42 74 13
42 75 235
42 76 189
42 77 119
42 78 60
42 79 199
42 80 63
42 81 59
42 82 12
42 83 259
42 84 149
42 85 1
42 86 148
42 87 193
42 88 191
42 89 168
42 90 112
43 44 183
43 45 258
43 46 186
43 47 203
43 48 161
43 49 244
43 50 160
43 51 82
43 52 44
43 53 259
43 54 218
43 55 226
43 56 138
43 57 184
43 58 207
43 59 2
43 60 228
43 61 83
43 62 124
43 63 158
43 64 4
43 65 52
43 66 158
43 67 17
43 68 211
43 69 42
43 70 50
43 71 36
43 72 133
43 73 32
43 74 170
43 75 211
43 76 190
43 77 105
43 78 211
43 79 200
43 80 210
43 81 32
43 82 0
43 83 157
43 84 200
43 85 16
43 86 261
43 87 132
43 88 151
43 89 185
43 90 67
44 45 253
44 46 228
44 47 103
44 48 185
44 49 226
44 50 185
44 51 246
44 52 262
44 53 234
44 54 189
44 55 178
44 56 90
44 57 202
44 58 141
44 59 121
44 60 146
44 61 105
44 62 14
44 63 225
44 64 261
44 65 164
44 66 144
44 67 143
44 68 47
44 69 129
44 70 42
44 71 112
44 72 134
44 73 236
44 74 242
44 75 229
44 76 134
44 77 92
44 78 107
44 79 74
44 80 1
44 81 110
44 82 112
44 83 133
44 84 176
44 85 166
44 86 179
44 87 159
44 88 108
44 89 102
44 90 165
45 46 87
45 47 11
45 48 138
45 49 197
45 50 263
45 51 210
45 52 121
45 53 242
45 54 56
45 55 232
45 56 210
45 57 96
45 58 64
45 59 258
45 60 123
45 61 93
45 62 41
45 63 208
45 64 157
45 65 230
45 66 254
45 67 236
45 68 109
45 69 244
45 70 95
45 71 76
45 72 226
45 73 46
45 74 241
45 75 151
45 76 101
45 77 200
45 78 228
45 79 37
45 80 42
45 81 116
45 82 44
45 83 73
45 84 17
45 85 84
45 86 180
45 87 141
45 88 143
45 89 181
45 90 220
46 47 179
46 48 139
46 49 106
46 50 249
46 51 40
46 52 262
46 53 36
46 54 157
46 55 29
46 56 194
46 57 180
46 58 46
46 59 65
46 60 173
46 61 95
46 62 179
46 63 93
46 64 261
46 65 216
46 66 252
46 67 70
46 68 160
46 69 192
46 70 128
46 71 7
46 72 57
46 73 218
46 74 262
46 75 221
46 76 120
46 77 245
46 78 222
46 79 138
46 80 38
46 81 230
46 82 169
46 83 77
46 84 160
46 85 206
46 86 9
46 87 187
46 88 164
46 89 13
46 90 223
47 48 96
47 49 35
47 50 212
47 51 15
47 52 191
47 53 102
47 54 108
47 55 85
47 56 203
47 57 73
47 58 144
47 59 204
47 60 97
47 61 151
47 62 106
47 63 235
47 64 163
47 65 66
47 66 76
47 67 242
47 68 167
47 69 33
47 70 163
47 71 213
47 72 109
47 73 205
47 74 186
47 75 239
47 76 231
47 77 5
47 78 223
47 79 230
47 80 69
47 81 88
47 82 28
47 83 30
47 84 2
47 85 208
47 86 91
47 87 201
47 88 19
47 89 167
47 90 48
48 49 172
48 50 29
48 51 179
48 52 89
48 53 181
48 54 83
48 55 209
48 56 232
48 57 41
48 58 62
48 59 54
48 60 66
48 61 15
48 62 92
48 63 174
48 64 171
48 65 12
48 66 86
48 67 242
48 68 14
48 69 193
48 70 48
48 71 197
48 72 137
48 73 36
48 74 124
48 75 7
48 76 139
48 77 22
48 78 196
48 79 67
48 80 164
48 81 18
48 82 16
48 83 63
48 84 226
48 85 39
48 86 96
48 87 56
48 88 258
48 89 199
48 90 195
49 50 71
49 51 42
49 52 215
49 53 87
49 54 129
49 55 2
49 56 269
49 57 144
49 58 252
49 59 197
49 60 77
49 61 71
49 62 110
49 63 238
49 64 85
49 65 217
49 66 226
49 67 130
49 68 181
49 69 105
49 70 169
49 71 174
49 72 141
49 73 249
49 74 56
49 75 1
49 76 184
49 77 254
49 78 20
49 79 191
49 80 25
49 81 253
49 82 196
49 83 174
49 84 236
49 85 250
49 86 124
49 87 229
49 88 103
49 89 123
49 90 3
50 51 75
50 52 133
50 53 50
50 54 212
50 55 244
50 56 137
50 57 130
50 58 98
50 59 261
50 60 83
50 61 177
50 62 149
50 63 105
50 64 104
50 65 52
50 66 112
50 67 172
50 68 188
50 69 63
50 70 218
50 71 49
50 72 64
50 73 9
50 74 183
50 75 150
50 76 220
50 77 135
50 78 100
50 79 8
50 80 113
50 81 163
50 82 113
50 83 62
50 84 112
50 85 149
50 86 103
50 87 90
50 88 40
50 89 15
50 90 32
51 52 96
51 53 258
51 54 66
51 55 257
51 56 94
51 57 237
51 58 238
51 59 70
51 60 208
51 61 129
51 62 252
51 63 29
51 64 116
51 65 107
51 66 224
51 67 62
51 68 41
51 69 69
51 70 39
51 71 252
51 72 183
51 73 40
51 74 51
51 75 249
51 76 199
51 77 209
51 78 5
51 79 261
51 80 162
51 81 115
51 82 146
51 83 233
51 84 118
51 85 153
51 86 0
51 87 175
51 88 84
51 89 159
51 90 191
52 53 159
52 54 28
52 55 140
52 56 22
52 57 158
52 58 203
52 59 128
52 60 89
52 61 35
52 62 81
52 63 223
52 64 191
52 65 50
52 66 71
52 67 83
52 68 127
52 69 106
52 70 225
52 71 40
52 72 269
52 73 146
52 74 135
52 75 148
52 76 208
52 77 157
52 78 99
52 79 124
52 80 259
52 81 8
52 82 103
52 83 69
52 84 130
52 85 34
52 86 22
52 87 114
52 88 28
52 89 23
52 90 68
53 54 157
53 55 27
53 56 125
53 57 137
53 58 91
53 59 265
53 60 227
53 61 221
53 62 203
53 63 145
53 64 238
53 65 170
53 66 4
53 67 116
53 68 149
53 69 253
53 70 82
53 71 161
53 72 54
53 73 140
53 74 175
53 75 262
53 76 264
53 77 158
53 78 127
53 79 218
53 80 185
53 81 242
53 82 23
53 83 49
53 84 242
53 85 131
53 86 128
53 87 76
53 88 40
53 89 198
53 90 120
54 55 264
54 56 223
54 57 61
54 58 10
54 59 190
54 60 164
54 61 8
54 62 88
54 63 52
54 64 104
54 65 18
54 66 33
54 67 265
54 68 228
54 69 180
54 70 244
54 71 242
54 72 35
54 73 113
54 74 114
54 75 116
54 76 70
54 77 223
54 78 137
54 79 29
54 80 90
54 81 25
54 82 218
54 83 92
54 84 164
54 85 131
54 86 214
54 87 56
54 88 137
54 89 194
54 90 40
55 56 175
55 57 162
55 58 37
55 59 11
55 60 131
55 61 252
55 62 103
55 63 183
55 64 255
55 65 241
55 66 39
55 67 90
55 68 83
55 69 256
55 70 114
55 71 160
55 72 192
55 73 181
55 74 83
55 75 159
55 76 12
55 77 207
55 78 13
55 79 26
55 80 64
55 81 94
55 82 167
55 83 219
55 84 72
55 85 114
55 86 217
55 87 191
55 88 153
55 89 10
55 90 186
56 57 24
56 58 164
56 59 127
56 60 1
56 61 216
56 62 95
56 63 82
56 64 173
56 65 187
56 66 172
56 67 142
56 68 124
56 69 46
56 70 126
56 71 228
56 72 125
56 73 268
56 74 60
56 75 78
56 76 228
56 77 244
56 78 246
56 79 83
56 80 105
56 81 26
56 82 71
56 83 65
56 84 223
56 85 21
56 86 165
56 87 113
56 88 157
56 89 11
56 90 193
57 58 177
57 59 67
57 60 223
57 61 120
57 62 72
57 63 21
57 64 255
57 65 72
57 66 53
57 67 108
57 68 264
57 69 147
57 70 115
57 71 92
57 72 101
57 73 115
57 74 239
57 75 255
57 76 137
57 77 237
57 78 178
57 79 252
57 80 25
57 81 230
57 82 85
57 83 245
57 84 213
57 85 224
57 86 216
57 87 193
57 88 74
57 89 63
57 90 120
58 59 200
58 60 251
58 61 30
58 62 101
58 63 24
58 64 81
58 65 189
58 66 177
58 67 78
58 68 90
58 69 176
58 70 16
58 71 60
58 72 39
58 73 244
58 74 111
58 75 269
58 76 226
58 77 31
58 78 178
58 79 172
58 80 81
58 81 55
58 82 146
58 83 16
58 84 99
58 85 144
58 86 147
58 87 109
58 88 229
58 89 83
58 90 119
59 60 173
59 61 124
59 62 222
59 63 117
59 64 43
59 65 195
59 66 215
59 67 103
59 68 184
59 69 85
59 70 80
59 71 37
59 72 232
59 73 170
59 74 233
59 75 45
59 76 102
59 77 267
59 78 248
59 79 40
59 80 90
59 81 130
59 82 160
59 83 92
59 84 239
59 85 153
59 86 63
59 87 214
59 88 185
59 89 125
59 90 232
60 61 239
60 62 100
60 63 240
60 64 89
60 65 151
60 66 67
60 67 227
60 68 195
60 69 191
60 70 232
60 71 199
60 72 150
60 73 123
60 74 253
60 75 69
60 76 184
60 77 5
60 78 194
60 79 126
60 80 73
60 81 75
60 82 28
60 83 94
60 84 233
60 85 249
60 86 223
60 87 150
60 88 137
60 89 187
60 90 1
61 62 84
61 63 133
61 64 208
61 65 202
61 66 60
61 67 189
61 68 238
61 69 133
61 70 229
61 71 263
61 72 54
61 73 72
61 74 48
61 75 248
61 76 6
61 77 143
61 78 169
61 79 157
61 80 145
61 81 240
61 82 200
61 83 60
61 84 199
61 85 171
61 86 113
61 87 198
61 88 71
61 89 239
61 90 162
62 63 98
62 64 256
62 65 3
62 66 82
62 67 193
62 68 208
62 69 255
62 70 248
62 71 40
62 72 21
62 73 221
62 74 24
62 75 18
62 76 59
62 77 18
62 78 242
62 79 123
62 80 259
62 81 165
62 82 38
62 83 123
62 84 157
62 85 119
62 86 2
62 87 265
62 88 24
62 89 69
62 90 228
63 64 268
63 65 215
63 66 221
63 67 139
63 68 195
63 69 177
63 70 233
63 71 62
63 72 178
63 73 160
63 74 191
63 75 243
63 76 118
63 77 18
63 78 166
63 79 214
63 80 91
63 81 260
63 82 64
63 83 108
63 84 35
63 85 64
63 86 102
63 87 71
63 88 97
63 89 51
63 90 37
64 65 25
64 66 73
64 67 96
64 68 117
64 69 122
64 70 78
64 71 97
64 72 123
64 73 128
64 74 115
64 75 265
64 76 22
64 77 214
64 78 112
64 79 167
64 80 65
64 81 117
64 82 33
64 83 35
64 84 141
64 85 160
64 86 70
64 87 121
64 88 51
64 89 92
64 90 268
65 66 247
65 67 4
65 68 75
65 69 91
65 70 92
65 71 116
65 72 148
65 73 129
65 74 13
65 75 128
65 76 209
65 77 109
65 78 207
65 79 57
65 80 176
65 81 57
65 82 237
65 83 203
65 84 231
65 85 204
65 86 89
65 87 206
65 88 1
65 89 74
65 90 90
66 67 225
66 68 265
66 69 145
66 70 63
66 71 131
66 72 104
66 73 257
66 74 179
66 75 159
66 76 229
66 77 125
66 78 110
66 79 238
66 80 179
66 81 60
66 82 137
66 83 255
66 84 20
66 85 252
66 86 2
66 87 65
66 88 51
66 89 71
66 90 261
67 68 40
67 69 131
67 70 242
67 71 186
67 72 144
67 73 97
67 74 145
67 75 163
67 76 192
67 77 225
67 78 159
67 79 92
67 80 116
67 81 150
67 82 87
67 83 67
67 84 183
67 85 229
67 86 171
67 87 62
67 88 83
67 89 259
67 90 122
68 69 80
68 70 240
68 71 147
68 72 194
68 73 206
68 74 60
68 75 203
68 76 72
68 77 144
68 78 256
68 79 226
68 80 7
68 81 198
68 82 248
68 83 225
68 84 0
68 85 84
68 86 200
68 87 168
68 88 4
68 89 3
68 90 80
69 70 178
69 71 125
69 72 153
69 73 129
69 74 27
69 75 21
69 76 42
69 77 8
69 78 203
69 79 84
69 80 79
69 81 214
69 82 4
69 83 21
69 84 103
69 85 82
69 86 21
69 87 125
69 88 263
69 89 156
69 90 6
70 71 62
70 72 179
70 73 68
70 74 251
70 75 243
70 76 209
70 77 157
70 78 203
70 79 68
70 80 91
70 81 220
70 82 140
70 83 63
70 84 121
70 85 186
70 86 24
70 87 34
70 88 257
70 89 237
70 90 257
71 72 205
71 73 170
71 74 162
71 75 94
71 76 63
71 77 165
71 78 215
71 79 5
71 80 216
71 81 55
71 82 102
71 83 154
71 84 22
71 85 155
71 86 29
71 87 230
71 88 132
71 89 58
71 90 188
72 73 144
72 74 138
72 75 180
72 76 269
72 77 163
72 78 40
72 79 38
72 80 49
72 81 205
72 82 194
72 83 227
72 84 53
72 85 117
72 86 118
72 87 267
72 88 155
72 89 83
72 90 116
73 74 227
73 75 16
73 76 199
73 77 189
73 78 171
73 79 14
73 80 34
73 81 175
73 82 251
73 83 59
73 84 266
73 85 124
73 86 146
73 87 187
73 88 219
73 89 44
73 90 156
74 75 143
74 76 16
74 77 102
74 78 41
74 79 53
74 80 17
74 81 38
74 82 166
74 83 246
74 84 2
74 85 99
74 86 71
74 87 7
74 88 73
74 89 237
74 90 269
75 76 232
75 77 267
75 78 169
75 79 53
75 80 183
75 81 54
75 82 35
75 83 31
75 84 151
75 85 72
75 86 158
75 87 96
75 88 14
75 89 75
75 90 227
76 77 94
76 78 215
76 79 157
76 80 221
76 81 188
76 82 101
76 83 105
76 84 49
76 85 110
76 86 45
76 87 102
76 88 86
76 89 117
76 90 176
77 78 32
77 79 207
77 80 261
77 81 26
77 82 185
77 83 236
77 84 46
77 85 156
77 86 177
77 87 267
77 88 151
77 89 55
77 90 59
78 79 139
78 80 23
78 81 260
78 82 54
78 83 144
78 84 39
78 85 20
78 86 235
78 87 237
78 88 86
78 89 234
78 90 200
79 80 236
79 81 164
79 82 102
79 83 61
79 84 29
79 85 21
79 86 62
79 87 69
79 88 90
79 89 207
79 90 126
80 81 214
80 82 83
80 83 101
80 84 82
80 85 195
80 86 11
80 87 122
80 88 224
80 89 166
80 90 248
81 82 164
81 83 129
81 84 213
81 85 60
81 86 64
81 87 102
81 88 234
81 89 196
81 90 16
82 83 44
82 84 7
82 85 138
82 86 46
82 87 74
82 88 189
82 89 207
82 90 153
83 84 117
83 85 233
83 86 83
83 87 188
83 88 163
83 89 235
83 90 101
84 85 258
84 86 58
84 87 251
84 88 23
84 89 7
84 90 235
85 86 183
85 87 4
85 88 191
85 89 12
85 90 118
86 87 192
86 88 52
86 89 161
86 90 236
87 88 65
87 89 27
87 90 40
88 89 19
88 90 69
89 90 251
